450
1 0 5 226 0 450 1 449 1 448 1 447 1
2 0 5 227 1 325 1 364 1 279 1 363 1
3 0 5 228 1 316 1 293 1 365 1 243 1
4 0 5 229 1 314 1 234 1 353 1 244 1
5 0 5 230 1 298 1 347 1 391 1 332 1
6 0 5 231 1 419 1 416 1 369 1 272 1
7 0 5 232 1 348 1 365 1 388 1 433 1
8 0 5 233 1 407 1 383 1 343 1 275 1
9 0 5 234 1 412 1 229 1 353 1 244 1
10 0 5 235 1 227 1 325 1 364 1 434 1
11 0 5 236 1 419 1 416 1 272 1 402 1
12 0 5 237 1 232 1 355 1 273 1 317 1
13 0 5 238 1 386 1 292 1 355 1 273 1
14 0 5 239 1 269 1 237 1 228 1 355 1
15 0 5 240 1 322 1 315 1 331 1 356 1
16 0 5 241 1 285 1 424 1 300 1 254 1
17 0 5 242 1 366 1 368 1 413 1 383 1
18 0 5 243 1 265 1 333 1 325 1 226 1
19 0 5 244 1 280 1 411 1 428 1 330 1
20 0 5 245 1 418 1 346 1 256 1 357 1
21 0 5 246 1 267 1 427 1 380 1 399 1
22 0 5 247 1 249 1 408 1 389 1 420 1
23 0 5 248 1 377 1 425 1 242 1 324 1
24 0 5 249 1 247 1 389 1 408 1 301 1
25 0 5 250 1 287 1 326 1 290 1 311 1
26 0 5 251 1 398 1 303 1 311 1 250 1
27 0 5 252 1 266 1 422 1 379 1 378 1
28 0 5 253 1 399 1 380 1 267 1 427 1
29 0 5 254 1 300 1 285 1 241 1 375 1
30 0 5 255 1 313 1 268 1 421 1 278 1
31 0 5 256 1 294 1 346 1 418 1 372 1
32 0 5 257 1 251 1 311 1 398 1 250 1
33 0 5 258 1 312 1 341 1 350 1 291 1
34 0 5 259 1 347 1 332 1 391 1 298 1
35 0 5 260 1 321 1 384 1 414 1 334 1
36 0 5 261 1 352 1 425 1 297 1 235 1
37 0 5 262 1 259 1 354 1 347 1 391 1
38 0 5 263 1 307 1 364 1 434 1 363 1
39 0 5 264 1 248 1 377 1 376 1 385 1
40 0 5 265 1 333 1 226 1 327 1 381 1
41 0 5 266 1 379 1 422 1 240 1 323 1
42 0 5 267 1 257 1 380 1 311 1 251 1
43 0 5 268 1 349 1 424 1 313 1 421 1
44 0 5 269 1 228 1 316 1 348 1 365 1
45 0 5 270 1 357 1 372 1 328 1 256 1
46 0 5 271 1 399 1 427 1 267 1 380 1
47 0 5 272 1 354 1 417 1 332 1 262 1
48 0 5 273 1 317 1 296 1 355 1 237 1
49 0 5 274 1 346 1 422 1 378 1 266 1
50 0 5 275 1 343 1 407 1 361 1 383 1
51 0 5 276 1 382 1 338 1 394 1 379 1
52 0 5 277 1 400 1 362 1 415 1 374 1
53 0 5 278 1 318 1 349 1 268 1 371 1
54 0 5 279 1 325 1 409 1 363 1 361 1
55 0 5 280 1 244 1 411 1 358 1 387 1
56 0 5 281 1 284 1 410 1 428 1 425 1
57 0 5 282 1 337 1 429 1 289 1 413 1
58 0 5 283 1 309 1 402 1 369 1 416 1
59 0 5 284 1 410 1 428 1 387 1 281 1
60 0 5 285 1 424 1 300 1 241 1 240 1
61 0 5 286 1 406 1 308 1 310 1 272 1
62 0 5 287 1 326 1 290 1 250 1 303 1
63 0 5 288 1 357 1 372 1 328 1 256 1
64 0 5 289 1 282 1 289 1 337 1 413 1
65 0 5 290 1 336 1 432 1 405 1 335 1
66 0 5 291 1 312 1 431 1 320 1 341 1
67 0 5 292 1 273 1 386 1 317 1 355 1
68 0 5 293 1 243 1 265 1 333 1 226 1
69 0 5 294 1 322 1 356 1 254 1 375 1
70 0 5 295 1 426 1 277 1 400 1 431 1
71 0 5 296 1 433 1 388 1 365 1 238 1
72 0 5 297 1 235 1 227 1 263 1 364 1
73 0 5 298 1 347 1 414 1 334 1 286 1
74 0 5 299 1 355 1 386 1 292 1 237 1
75 0 5 300 1 375 1 424 1 285 1 240 1
76 0 5 301 1 389 1 408 1 420 1 338 1
77 0 5 302 1 322 1 356 1 254 1 300 1
78 0 5 303 1 336 1 326 1 290 1 433 1
79 0 5 304 1 339 1 239 1 430 1 401 1
80 0 5 305 1 255 1 313 1 421 1 315 1
81 0 5 306 1 257 1 267 1 311 1 427 1
82 0 5 307 1 363 1 434 1 364 1 409 1
83 0 5 308 1 417 1 310 1 351 1 406 1
84 0 5 309 1 369 1 402 1 283 1 416 1
85 0 5 310 1 417 1 308 1 351 1 406 1
86 0 5 311 1 251 1 267 1 380 1 257 1
87 0 5 312 1 341 1 431 1 291 1 350 1
88 0 5 313 1 268 1 349 1 424 1 371 1
89 0 5 314 1 234 1 229 1 412 1 353 1
90 0 5 315 1 331 1 322 1 241 1 356 1
91 0 5 316 1 293 1 243 1 265 1 226 1
92 0 5 317 1 348 1 426 1 365 1 388 1
93 0 5 318 1 349 1 278 1 396 1 421 1
94 0 5 319 1 281 1 284 1 410 1 392 1
95 0 5 320 1 320 1 277 1 400 1 426 1
96 0 5 321 1 384 1 334 1 344 1 231 1
97 0 5 322 1 356 1 315 1 254 1 331 1
98 0 5 323 1 322 1 240 1 315 1 356 1
99 0 5 324 1 383 1 407 1 413 1 343 1
100 0 5 325 1 279 1 363 1 364 1 434 1
101 0 5 326 1 290 1 303 1 336 1 432 1
102 0 5 327 1 345 1 392 1 281 1 261 1
103 0 5 328 1 256 1 294 1 357 1 346 1
104 0 5 329 1 350 1 367 1 423 1 312 1
105 0 5 330 1 411 1 280 1 428 1 244 1
106 0 5 331 1 241 1 356 1 254 1 285 1
107 0 5 332 1 393 1 347 1 259 1 260 1
108 0 5 333 1 226 1 265 1 381 1 299 1
109 0 5 334 1 384 1 344 1 321 1 414 1
110 0 5 335 1 226 1 432 1 405 1 302 1
111 0 5 336 1 433 1 388 1 432 1 405 1
112 0 5 337 1 282 1 429 1 403 1 383 1
113 0 5 338 1 394 1 379 1 305 1 395 1
114 0 5 339 1 239 1 237 1 269 1 228 1
115 0 5 340 1 385 1 376 1 264 1 284 1
116 0 5 341 1 291 1 431 1 320 1 277 1
117 0 5 342 1 292 1 355 1 386 1 273 1
118 0 5 343 1 275 1 361 1 407 1 324 1
119 0 5 344 1 283 1 309 1 369 1 419 1
120 0 5 345 1 392 1 261 1 352 1 283 1
121 0 5 346 1 294 1 418 1 256 1 422 1
122 0 5 347 1 391 1 321 1 260 1 414 1
123 0 5 348 1 365 1 228 1 269 1 317 1
124 0 5 349 1 424 1 285 1 268 1 313 1
125 0 5 350 1 367 1 423 1 329 1 295 1
126 0 5 351 1 230 1 262 1 298 1 332 1
127 0 5 352 1 297 1 235 1 263 1 227 1
128 0 5 353 1 324 1 233 1 407 1 383 1
129 0 5 354 1 332 1 262 1 393 1 259 1
130 0 5 355 1 237 1 273 1 232 1 296 1
131 0 5 356 1 254 1 331 1 241 1 300 1
132 0 5 357 1 372 1 328 1 294 1 256 1
133 0 5 358 1 233 1 324 1 407 1 383 1
134 0 5 359 1 378 1 256 1 422 1 346 1
135 0 5 360 1 276 1 382 1 338 1 394 1
136 0 5 361 1 281 1 284 1 410 1 387 1
137 0 5 362 1 415 1 426 1 397 1 400 1
138 0 5 363 1 409 1 325 1 279 1 282 1
139 0 5 364 1 364 1 307 1 363 1 409 1
140 0 5 365 1 433 1 390 1 238 1 269 1
141 0 5 366 1 368 1 413 1 289 1 337 1
142 0 5 367 1 295 1 426 1 431 1 320 1
143 0 5 368 1 429 1 337 1 289 1 282 1
144 0 5 369 1 402 1 283 1 416 1 309 1
145 0 5 370 1 345 1 392 1 261 1 281 1
146 0 5 371 1 421 1 255 1 278 1 313 1
147 0 5 372 1 302 1 322 1 240 1 323 1
148 0 5 373 1 292 1 386 1 273 1 317 1
149 0 5 374 1 329 1 423 1 350 1 258 1
150 0 5 375 1 424 1 300 1 302 1 240 1
151 0 5 376 1 264 1 248 1 410 1 377 1
152 0 5 377 1 242 1 324 1 366 1 383 1
153 0 5 378 1 266 1 379 1 422 1 323 1
154 0 5 379 1 395 1 240 1 322 1 315 1
155 0 5 380 1 250 1 287 1 311 1 326 1
156 0 5 381 1 339 1 430 1 401 1 239 1
157 0 5 382 1 338 1 394 1 379 1 266 1
158 0 5 383 1 413 1 289 1 429 1 343 1
159 0 5 384 1 334 1 344 1 321 1 414 1
160 0 5 385 1 376 1 264 1 248 1 410 1
161 0 5 386 1 273 1 317 1 296 1 355 1
162 0 5 387 1 387 1 330 1 411 1 244 1
163 0 5 388 1 388 1 432 1 405 1 336 1
164 0 5 389 1 420 1 408 1 371 1 305 1
165 0 5 390 1 386 1 292 1 317 1 273 1
166 0 5 391 1 414 1 334 1 384 1 344 1
167 0 5 392 1 261 1 352 1 345 1 283 1
168 0 5 393 1 260 1 321 1 347 1 391 1
169 0 5 394 1 305 1 255 1 371 1 313 1
170 0 5 395 1 315 1 322 1 331 1 356 1
171 0 5 396 1 276 1 382 1 360 1 338 1
172 0 5 397 1 312 1 258 1 291 1 341 1
173 0 5 398 1 303 1 336 1 326 1 251 1
174 0 5 399 1 380 1 267 1 427 1 246 1
175 0 5 400 1 362 1 415 1 397 1 426 1
176 0 5 401 1 239 1 269 1 237 1 355 1
177 0 5 402 1 262 1 259 1 347 1 332 1
178 0 5 403 1 314 1 234 1 229 1 280 1
179 0 5 404 1 399 1 380 1 427 1 267 1
180 0 5 405 1 335 1 405 1 433 1 388 1
181 0 5 406 1 310 1 308 1 417 1 351 1
182 0 5 407 1 343 1 275 1 383 1 361 1
183 0 5 408 1 389 1 420 1 301 1 247 1
184 0 5 409 1 279 1 325 1 361 1 327 1
185 0 5 410 1 425 1 377 1 263 1 284 1
186 0 5 411 1 358 1 229 1 353 1 233 1
187 0 5 412 1 229 1 353 1 358 1 324 1
188 0 5 413 1 368 1 337 1 366 1 289 1
189 0 5 414 1 334 1 384 1 344 1 321 1
190 0 5 415 1 362 1 400 1 426 1 296 1
191 0 5 416 1 419 1 272 1 309 1 369 1
192 0 5 417 1 351 1 354 1 230 1 262 1
193 0 5 418 1 346 1 422 1 323 1 294 1
194 0 5 419 1 272 1 416 1 402 1 354 1
195 0 5 420 1 371 1 421 1 255 1 305 1
196 0 5 421 1 278 1 255 1 268 1 313 1
197 0 5 422 1 323 1 266 1 346 1 240 1
198 0 5 423 1 329 1 350 1 367 1 296 1
199 0 5 424 1 285 1 375 1 300 1 241 1
200 0 5 425 1 263 1 364 1 434 1 307 1
201 0 5 426 1 400 1 362 1 415 1 320 1
202 0 5 427 1 427 1 257 1 311 1 380 1
203 0 5 428 1 330 1 411 1 244 1 284 1
204 0 5 429 1 282 1 337 1 289 1 413 1
205 0 5 430 1 239 1 269 1 355 1 237 1
206 0 5 431 1 277 1 320 1 400 1 426 1
207 0 5 432 1 335 1 433 1 405 1 388 1
208 0 5 433 1 432 1 405 1 388 1 336 1
209 0 5 434 1 363 1 307 1 364 1 409 1
210 0 5 435 0 226 1 435 1 436 1 437 1
211 0 5 436 0 226 1 435 1 436 1 437 1
212 0 5 437 0 226 1 435 1 436 1 437 1
213 0 5 438 0 226 1 435 1 436 1 437 1
214 0 5 439 0 226 1 435 1 436 1 437 1
215 0 5 440 0 226 1 435 1 436 1 437 1
216 0 5 441 0 226 1 435 1 436 1 437 1
217 0 5 442 0 226 1 435 1 436 1 437 1
218 0 5 443 0 226 1 435 1 436 1 437 1
219 0 5 444 0 226 1 435 1 436 1 437 1
220 0 5 445 0 226 1 435 1 436 1 437 1
221 0 5 446 0 226 1 435 1 436 1 437 1
222 0 5 447 0 226 1 435 1 436 1 437 1
223 0 5 448 0 226 1 435 1 436 1 437 1
224 0 5 449 0 226 1 435 1 436 1 437 1
225 0 5 450 0 226 1 435 1 436 1 437 1
226 0 5 1 0 225 1 224 1 223 1 222 1
227 0 5 2 1 10 1 72 1 82 1 139 1
228 0 5 3 1 44 1 14 1 7 1 114 1
229 0 5 4 1 187 1 89 1 9 1 178 1
230 0 5 5 1 126 1 122 1 83 1 107 1
231 0 5 6 1 109 1 159 1 189 1 96 1
232 0 5 7 1 12 1 130 1 14 1 74 1
233 0 5 8 1 133 1 128 1 186 1 203 1
234 0 5 9 1 89 1 4 1 178 1 55 1
235 0 5 10 1 72 1 127 1 38 1 200 1
236 0 5 11 1 109 1 159 1 189 1 96 1
237 0 5 12 1 130 1 14 1 114 1 176 1
238 0 5 13 1 208 1 163 1 140 1 111 1
239 0 5 14 1 205 1 176 1 114 1 79 1
240 0 5 15 1 154 1 98 1 41 1 197 1
241 0 5 16 1 106 1 131 1 90 1 29 1
242 0 5 17 1 152 1 23 1 200 1 39 1
243 0 5 18 1 68 1 91 1 2 1 100 1
244 0 5 19 1 55 1 203 1 162 1 105 1
245 0 5 20 1 150 1 199 1 60 1 75 1
246 0 5 21 1 174 1 28 1 207 1 180 1
247 0 5 22 1 24 1 183 1 171 1 135 1
248 0 5 23 1 151 1 39 1 160 1 185 1
249 0 5 24 1 22 1 183 1 171 1 135 1
250 0 5 25 1 155 1 62 1 86 1 202 1
251 0 5 26 1 32 1 86 1 202 1 42 1
252 0 5 27 1 134 1 150 1 49 1 199 1
253 0 5 28 1 150 1 110 1 46 1 207 1
254 0 5 29 1 131 1 97 1 106 1 15 1
255 0 5 30 1 80 1 90 1 170 1 146 1
256 0 5 31 1 132 1 121 1 103 1 63 1
257 0 5 32 1 81 1 42 1 202 1 86 1
258 0 5 33 1 172 1 149 1 198 1 104 1
259 0 5 34 1 37 1 177 1 107 1 144 1
260 0 5 35 1 168 1 122 1 107 1 109 1
261 0 5 36 1 167 1 120 1 145 1 102 1
262 0 5 37 1 177 1 129 1 144 1 47 1
263 0 5 38 1 200 1 185 1 59 1 50 1
264 0 5 39 1 151 1 160 1 185 1 115 1
265 0 5 40 1 18 1 68 1 140 1 110 1
266 0 5 41 1 153 1 27 1 197 1 49 1
267 0 5 42 1 202 1 21 1 86 1 81 1
268 0 5 43 1 88 1 30 1 106 1 196 1
269 0 5 44 1 14 1 176 1 205 1 114 1
270 0 5 45 1 63 1 132 1 150 1 134 1
271 0 5 46 1 1 1 150 1 110 1 180 1
272 0 5 47 1 194 1 191 1 11 1 6 1
273 0 5 48 1 67 1 161 1 130 1 12 1
274 0 5 49 1 150 1 199 1 60 1 121 1
275 0 5 50 1 118 1 182 1 158 1 8 1
276 0 5 51 1 135 1 171 1 157 1 124 1
277 0 5 52 1 206 1 95 1 66 1 116 1
278 0 5 53 1 196 1 146 1 88 1 124 1
279 0 5 54 1 100 1 184 1 2 1 138 1
280 0 5 55 1 19 1 203 1 162 1 105 1
281 0 5 56 1 94 1 136 1 59 1 203 1
282 0 5 57 1 64 1 204 1 143 1 188 1
283 0 5 58 1 119 1 191 1 84 1 144 1
284 0 5 59 1 56 1 203 1 162 1 136 1
285 0 5 60 1 16 1 199 1 106 1 29 1
286 0 5 61 1 109 1 189 1 73 1 122 1
287 0 5 62 1 25 1 155 1 42 1 174 1
288 0 5 63 1 1 1 132 1 45 1 150 1
289 0 5 64 1 64 1 158 1 143 1 188 1
290 0 5 65 1 101 1 62 1 25 1 78 1
291 0 5 66 1 116 1 33 1 172 1 87 1
292 0 5 67 1 148 1 117 1 130 1 13 1
293 0 5 68 1 91 1 140 1 3 1 1 1
294 0 5 69 1 103 1 132 1 31 1 121 1
295 0 5 70 1 142 1 198 1 125 1 104 1
296 0 5 71 1 48 1 130 1 161 1 198 1
297 0 5 72 1 127 1 200 1 36 1 120 1
298 0 5 73 1 5 1 122 1 126 1 34 1
299 0 5 74 1 163 1 208 1 140 1 156 1
300 0 5 75 1 29 1 199 1 150 1 131 1
301 0 5 76 1 24 1 183 1 22 1 171 1
302 0 5 77 1 147 1 98 1 132 1 103 1
303 0 5 78 1 173 1 26 1 101 1 62 1
304 0 5 79 1 1 1 110 1 108 1 156 1
305 0 5 80 1 169 1 113 1 195 1 157 1
306 0 5 81 1 28 1 174 1 21 1 86 1
307 0 5 82 1 38 1 139 1 209 1 100 1
308 0 5 83 1 181 1 61 1 85 1 194 1
309 0 5 84 1 58 1 191 1 194 1 119 1
310 0 5 85 1 181 1 83 1 61 1 194 1
311 0 5 86 1 32 1 202 1 81 1 42 1
312 0 5 87 1 33 1 66 1 172 1 104 1
313 0 5 88 1 30 1 80 1 124 1 90 1
314 0 5 89 1 178 1 4 1 203 1 162 1
315 0 5 90 1 170 1 97 1 15 1 98 1
316 0 5 91 1 3 1 123 1 44 1 140 1
317 0 5 92 1 48 1 161 1 67 1 130 1
318 0 5 93 1 53 1 124 1 43 1 196 1
319 0 5 94 1 184 1 54 1 138 1 100 1
320 0 5 95 1 95 1 66 1 116 1 87 1
321 0 5 96 1 35 1 168 1 122 1 159 1
322 0 5 97 1 15 1 98 1 90 1 197 1
323 0 5 98 1 197 1 193 1 121 1 41 1
324 0 5 99 1 128 1 4 1 133 1 187 1
325 0 5 100 1 2 1 54 1 184 1 138 1
326 0 5 101 1 62 1 78 1 25 1 155 1
327 0 5 102 1 184 1 54 1 40 1 138 1
328 0 5 103 1 132 1 45 1 63 1 121 1
329 0 5 104 1 198 1 149 1 125 1 33 1
330 0 5 105 1 203 1 162 1 19 1 59 1
331 0 5 106 1 90 1 131 1 170 1 97 1
332 0 5 107 1 129 1 34 1 47 1 126 1
333 0 5 108 1 40 1 18 1 110 1 68 1
334 0 5 109 1 189 1 159 1 96 1 166 1
335 0 5 110 1 207 1 180 1 65 1 208 1
336 0 5 111 1 78 1 65 1 101 1 173 1
337 0 5 112 1 64 1 57 1 188 1 204 1
338 0 5 113 1 157 1 51 1 135 1 171 1
339 0 5 114 1 79 1 156 1 1 1 110 1
340 0 5 115 1 112 1 204 1 57 1 64 1
341 0 5 116 1 87 1 33 1 172 1 66 1
342 0 5 117 1 114 1 208 1 163 1 74 1
343 0 5 118 1 182 1 50 1 158 1 8 1
344 0 5 119 1 159 1 109 1 189 1 96 1
345 0 5 120 1 145 1 102 1 167 1 94 1
346 0 5 121 1 193 1 132 1 197 1 31 1
347 0 5 122 1 34 1 37 1 107 1 177 1
348 0 5 123 1 7 1 92 1 44 1 12 1
349 0 5 124 1 43 1 88 1 60 1 199 1
350 0 5 125 1 198 1 104 1 149 1 33 1
351 0 5 126 1 192 1 83 1 85 1 181 1
352 0 5 127 1 36 1 167 1 120 1 145 1
353 0 5 128 1 187 1 4 1 9 1 55 1
354 0 5 129 1 47 1 192 1 37 1 177 1
355 0 5 130 1 74 1 117 1 12 1 13 1
356 0 5 131 1 97 1 106 1 15 1 98 1
357 0 5 132 1 63 1 45 1 103 1 1 1
358 0 5 133 1 186 1 55 1 203 1 162 1
359 0 5 134 1 150 1 199 1 60 1 75 1
360 0 5 135 1 171 1 93 1 124 1 51 1
361 0 5 136 1 184 1 50 1 57 1 204 1
362 0 5 137 1 175 1 190 1 52 1 201 1
363 0 5 138 1 209 1 82 1 139 1 100 1
364 0 5 139 1 139 1 38 1 82 1 100 1
365 0 5 140 1 123 1 92 1 7 1 208 1
366 0 5 141 1 17 1 158 1 188 1 99 1
367 0 5 142 1 198 1 125 1 104 1 33 1
368 0 5 143 1 188 1 141 1 158 1 17 1
369 0 5 144 1 84 1 58 1 191 1 6 1
370 0 5 145 1 184 1 54 1 138 1 100 1
371 0 5 146 1 195 1 183 1 24 1 164 1
372 0 5 147 1 132 1 45 1 63 1 103 1
373 0 5 148 1 208 1 163 1 130 1 74 1
374 0 5 149 1 190 1 137 1 175 1 165 1
375 0 5 150 1 75 1 199 1 60 1 29 1
376 0 5 151 1 160 1 39 1 115 1 178 1
377 0 5 152 1 23 1 39 1 185 1 160 1
378 0 5 153 1 134 1 49 1 27 1 124 1
379 0 5 154 1 41 1 153 1 27 1 51 1
380 0 5 155 1 174 1 28 1 42 1 179 1
381 0 5 156 1 1 1 110 1 108 1 40 1
382 0 5 157 1 135 1 171 1 51 1 93 1
383 0 5 158 1 99 1 128 1 50 1 188 1
384 0 5 159 1 96 1 109 1 189 1 35 1
385 0 5 160 1 115 1 39 1 151 1 59 1
386 0 5 161 1 67 1 148 1 117 1 13 1
387 0 5 162 1 162 1 105 1 55 1 59 1
388 0 5 163 1 111 1 163 1 65 1 78 1
389 0 5 164 1 76 1 183 1 24 1 22 1
390 0 5 165 1 208 1 163 1 140 1 201 1
391 0 5 166 1 122 1 34 1 37 1 107 1
392 0 5 167 1 120 1 145 1 102 1 56 1
393 0 5 168 1 107 1 122 1 129 1 34 1
394 0 5 169 1 113 1 51 1 157 1 135 1
395 0 5 170 1 154 1 98 1 41 1 197 1
396 0 5 171 1 93 1 124 1 135 1 43 1
397 0 5 172 1 190 1 137 1 175 1 201 1
398 0 5 173 1 26 1 32 1 86 1 25 1
399 0 5 174 1 28 1 179 1 46 1 21 1
400 0 5 175 1 52 1 201 1 95 1 206 1
401 0 5 176 1 1 1 156 1 79 1 110 1
402 0 5 177 1 144 1 84 1 58 1 191 1
403 0 5 178 1 112 1 204 1 64 1 188 1
404 0 5 179 1 150 1 110 1 163 1 207 1
405 0 5 180 1 65 1 180 1 208 1 163 1
406 0 5 181 1 61 1 83 1 85 1 194 1
407 0 5 182 1 8 1 133 1 99 1 128 1
408 0 5 183 1 76 1 24 1 22 1 164 1
409 0 5 184 1 138 1 54 1 100 1 139 1
410 0 5 185 1 59 1 56 1 136 1 94 1
411 0 5 186 1 162 1 203 1 105 1 55 1
412 0 5 187 1 9 1 89 1 55 1 4 1
413 0 5 188 1 158 1 141 1 64 1 204 1
414 0 5 189 1 166 1 35 1 159 1 109 1
415 0 5 190 1 137 1 175 1 52 1 201 1
416 0 5 191 1 11 1 6 1 194 1 144 1
417 0 5 192 1 85 1 83 1 181 1 47 1
418 0 5 193 1 20 1 121 1 45 1 31 1
419 0 5 194 1 11 1 6 1 191 1 144 1
420 0 5 195 1 164 1 183 1 24 1 76 1
421 0 5 196 1 146 1 30 1 80 1 195 1
422 0 5 197 1 193 1 41 1 121 1 27 1
423 0 5 198 1 149 1 125 1 104 1 33 1
424 0 5 199 1 60 1 16 1 150 1 75 1
425 0 5 200 1 185 1 59 1 56 1 94 1
426 0 5 201 1 70 1 142 1 95 1 190 1
427 0 5 202 1 202 1 21 1 81 1 86 1
428 0 5 203 1 162 1 105 1 59 1 19 1
429 0 5 204 1 143 1 158 1 57 1 188 1
430 0 5 205 1 156 1 1 1 79 1 110 1
431 0 5 206 1 66 1 95 1 116 1 87 1
432 0 5 207 1 65 1 208 1 163 1 180 1
433 0 5 208 1 111 1 163 1 180 1 207 1
434 0 5 209 1 82 1 38 1 139 1 100 1
435 0 5 210 0 225 1 224 1 223 1 222 1
436 0 5 211 0 225 1 224 1 223 1 222 1
437 0 5 212 0 225 1 224 1 223 1 222 1
438 0 5 213 0 225 1 224 1 223 1 222 1
439 0 5 214 0 225 1 224 1 223 1 222 1
440 0 5 215 0 225 1 224 1 223 1 222 1
441 0 5 216 0 225 1 224 1 223 1 222 1
442 0 5 217 0 225 1 224 1 223 1 222 1
443 0 5 218 0 225 1 224 1 223 1 222 1
444 0 5 219 0 225 1 224 1 223 1 222 1
445 0 5 220 0 225 1 224 1 223 1 222 1
446 0 5 221 0 225 1 224 1 223 1 222 1
447 0 5 222 0 225 1 224 1 223 1 222 1
448 0 5 223 0 225 1 224 1 223 1 222 1
449 0 5 224 0 225 1 224 1 223 1 222 1
450 0 5 225 0 225 1 224 1 223 1 222 1
-1
EOF
